Welcome to the CBC MILP Solver 
Version: 2.10.3 
Build Date: Dec 15 2019 

command line - /Users/willcorcoran__/opt/anaconda3/envs/vigoda/lib/python3.8/site-packages/pulp/solverdir/cbc/osx/64/cbc /var/folders/0z/fbvp30yd2rqglt77ftznhyp80000gn/T/5ba094f1c183492ca858b1a74359d461-pulp.mps -timeMode elapsed -branch -printingOptions all -solution /var/folders/0z/fbvp30yd2rqglt77ftznhyp80000gn/T/5ba094f1c183492ca858b1a74359d461-pulp.sol (default strategy 1)
At line 2 NAME          MODEL
At line 3 ROWS
At line 2264 COLUMNS
At line 11979 RHS
At line 14239 BOUNDS
At line 14394 ENDATA
Problem MODEL has 2259 rows, 151 columns and 9095 elements
Coin0008I MODEL read with 0 errors
Option for timeMode changed from cpu to elapsed
Presolve 1181 (-1078) rows, 136 (-15) columns and 4574 (-4521) elements
Perturbing problem by 0.001% of 4.5696973 - largest nonzero change 6.1328747e-05 ( 0.0013420746%) - largest zero change 6.0985411e-05
0  Obj 1.4000569 Primal inf 3.5478975 (20)
33  Obj 1.8315258
Optimal - objective value 1.831433
After Postsolve, objective 1.831433, infeasibilities - dual 0 (0), primal 0 (0)
Optimal objective 1.831433023 - 33 iterations time 0.002, Presolve 0.00
Option for printingOptions changed from normal to all
Total time (CPU seconds):       0.01   (Wallclock seconds):       0.01

3.0044097013429614 6.617650472651402
19.882133280130706
lambda_bad = 1.8333333
lambda_good = 1.7936508
lambda_obj = 1.831433
min_1_2_1_3 = 0.0
min_1_2_2_3 = 0.14285714
min_1_2_2_4 = 0.0
min_1_2_2_5 = 0.0
min_1_2_3_4 = 0.071428571
min_1_2_3_5 = 0.0
min_1_2_3_6 = 0.0
min_1_2_3_7 = 0.0
min_1_2_4_5 = 0.047619048
min_1_2_4_6 = 0.0
min_1_2_4_7 = 0.0
min_1_2_5_6 = 0.0
min_1_2_5_7 = 0.0
min_1_2_6_7 = 0.0
min_1_3_2_4 = 0.0
min_1_3_2_5 = 0.26190476
min_1_3_3_4 = 0.0
min_1_3_3_5 = 0.0
min_1_3_3_6 = 0.12380952
min_1_3_3_7 = 0.16666667
min_1_3_4_5 = 0.0
min_1_3_4_6 = 0.0
min_1_3_4_7 = 0.023809524
min_1_3_5_6 = 0.0
min_1_3_5_7 = 0.0
min_1_3_6_7 = 0.0
min_2_1_2 = 0.0
min_2_1_3 = 0.0
min_2_3_2_4 = 0.0
min_2_3_2_5 = 0.0
min_2_3_3_4 = 0.0
min_2_3_3_5 = 0.0
min_2_3_3_6 = 0.0
min_2_3_3_7 = 0.0
min_2_3_4_5 = 0.0
min_2_3_4_6 = 0.0
min_2_3_4_7 = 0.0
min_2_3_5_6 = 0.0
min_2_3_5_7 = 0.0
min_2_3_6_7 = 0.0
min_2_4_2_5 = 0.0
min_2_4_3_5 = 0.0
min_2_4_3_6 = 0.0
min_2_4_3_7 = 0.0
min_2_4_4_5 = 0.0
min_2_4_4_6 = 0.0
min_2_4_4_7 = 0.0
min_2_4_5_6 = 0.0
min_2_4_5_7 = 0.0
min_2_4_6_7 = 0.0
min_2_5_3_6 = 0.0
min_2_5_3_7 = 0.0
min_2_5_4_6 = 0.0
min_2_5_4_7 = 0.0
min_2_5_5_6 = 0.0
min_2_5_5_7 = 0.0
min_2_5_6_7 = 0.0
min_3_1_2 = 0.0
min_3_1_3 = 0.0
min_3_2_3 = 0.0
min_3_2_4 = 0.0
min_3_2_5 = 0.0
min_3_4_3_5 = 0.0
min_3_4_3_6 = 0.0
min_3_4_3_7 = 0.0
min_3_4_4_5 = 0.0
min_3_4_4_6 = 0.0
min_3_4_4_7 = 0.0
min_3_4_5_6 = 0.0
min_3_4_5_7 = 0.0
min_3_4_6_7 = 0.0
min_3_5_3_6 = 0.0
min_3_5_3_7 = 0.0
min_3_5_4_6 = 0.0
min_3_5_4_7 = 0.0
min_3_5_5_6 = 0.0
min_3_5_5_7 = 0.0
min_3_5_6_7 = 0.0
min_3_6_3_7 = 0.0
min_3_6_4_7 = 0.0
min_3_6_5_7 = 0.0
min_3_6_6_7 = 0.0
min_4_1_2 = 0.0
min_4_1_3 = 0.0
min_4_2_3 = 0.0
min_4_2_4 = 0.0
min_4_2_5 = 0.0
min_4_3_4 = 0.0
min_4_3_5 = 0.0
min_4_3_6 = 0.0
min_4_3_7 = 0.0
min_4_5_4_6 = 0.0
min_4_5_4_7 = 0.0
min_4_5_5_6 = 0.0
min_4_5_5_7 = 0.0
min_4_5_6_7 = 0.0
min_4_6_4_7 = 0.0
min_4_6_5_7 = 0.0
min_4_6_6_7 = 0.0
min_5_1_2 = 0.0
min_5_1_3 = 0.0
min_5_2_3 = 0.0
min_5_2_4 = 0.0
min_5_2_5 = 0.0
min_5_3_4 = 0.0
min_5_3_5 = 0.0
min_5_3_6 = 0.0
min_5_3_7 = 0.0
min_5_4_5 = 0.0
min_5_4_6 = 0.0
min_5_4_7 = 0.0
min_5_6_5_7 = 0.0
min_5_6_6_7 = 0.0
min_6_1_2 = 0.0
min_6_1_3 = 0.0
min_6_2_3 = 0.0
min_6_2_4 = 0.0
min_6_2_5 = 0.0
min_6_3_4 = 0.0
min_6_3_5 = 0.0
min_6_3_6 = 0.0
min_6_3_7 = 0.0
min_6_4_5 = 0.0
min_6_4_6 = 0.0
min_6_4_7 = 0.0
min_6_5_6 = 0.0
min_6_5_7 = 0.0
min_7_1_2 = 0.0
min_7_2_3 = 0.0
min_7_2_4 = 0.0
min_7_3_4 = 0.0
min_7_3_5 = 0.0
min_7_3_6 = 0.0
min_7_4_5 = 0.0
min_7_4_6 = 0.0
min_7_4_7 = 0.0
min_7_5_6 = 0.0
min_7_5_7 = 0.0
min_7_6_7 = 0.0
p1 = 1.0
p2 = 0.30952381
p3 = 0.16666667
p4 = 0.095238095
p5 = 0.047619048
p6 = 0.019047619
p7 = 0.0
x = 0.19047619
y = 1.3333333
